mixintcount/benchmarks/random_v2l/4_4_56.in
16 6
#	x1	x2	x3	x4;		0 = Real; 1 = Integer
	1	1	1	1
1	-1	-1	6	-6	17
1	-5	5	2	-5	-43
1	8	-3	-6	-9	31
1	5	9	4	6	51
1	10	-2	10	-6	-37
1	3	-2	3	-5	20
1	-10	2	-4	7	24
1	7	10	-1	-1	-55
1	1	0	0	0	56
1	-1	0	0	0	56
1	0	1	0	0	56
1	0	-1	0	0	56
1	0	0	1	0	56
1	0	0	-1	0	56
1	0	0	0	1	56
1	0	0	0	-1	56
